p edge 70 941
e 1 9
e 1 11
e 1 16
e 1 17
e 1 19
e 1 21
e 1 22
e 1 24
e 1 27
e 1 29
e 1 30
e 1 31
e 1 32
e 1 33
e 1 34
e 1 35
e 1 39
e 1 41
e 1 46
e 1 47
e 1 48
e 1 49
e 1 56
e 1 64
e 1 65
e 1 69
e 2 5
e 2 7
e 2 12
e 2 18
e 2 20
e 2 22
e 2 26
e 2 27
e 2 28
e 2 31
e 2 38
e 2 41
e 2 46
e 2 49
e 2 50
e 2 51
e 2 52
e 2 53
e 2 56
e 2 58
e 2 59
e 2 60
e 2 64
e 2 66
e 3 4
e 3 5
e 3 16
e 3 17
e 3 20
e 3 23
e 3 24
e 3 25
e 3 26
e 3 29
e 3 37
e 3 38
e 3 39
e 3 41
e 3 43
e 3 44
e 3 47
e 3 54
e 3 55
e 3 57
e 3 58
e 3 59
e 3 61
e 3 63
e 3 65
e 3 68
e 4 6
e 4 7
e 4 9
e 4 10
e 4 11
e 4 13
e 4 21
e 4 22
e 4 23
e 4 24
e 4 25
e 4 28
e 4 33
e 4 34
e 4 41
e 4 44
e 4 45
e 4 49
e 4 50
e 4 51
e 4 54
e 4 55
e 4 56
e 4 57
e 4 59
e 4 60
e 4 61
e 4 62
e 4 64
e 4 65
e 4 68
e 4 70
e 5 6
e 5 7
e 5 8
e 5 9
e 5 13
e 5 15
e 5 18
e 5 19
e 5 22
e 5 24
e 5 25
e 5 26
e 5 27
e 5 28
e 5 33
e 5 34
e 5 35
e 5 38
e 5 40
e 5 44
e 5 45
e 5 46
e 5 49
e 5 56
e 5 57
e 5 62
e 5 64
e 5 65
e 5 69
e 6 10
e 6 11
e 6 12
e 6 13
e 6 16
e 6 20
e 6 26
e 6 30
e 6 31
e 6 34
e 6 37
e 6 40
e 6 41
e 6 43
e 6 44
e 6 47
e 6 48
e 6 51
e 6 53
e 6 55
e 6 56
e 6 57
e 6 60
e 6 61
e 6 62
e 6 64
e 6 66
e 6 67
e 6 68
e 6 69
e 6 70
e 7 10
e 7 11
e 7 13
e 7 16
e 7 18
e 7 21
e 7 23
e 7 24
e 7 26
e 7 29
e 7 30
e 7 36
e 7 42
e 7 46
e 7 49
e 7 55
e 7 61
e 7 64
e 7 65
e 7 67
e 7 68
e 7 69
e 7 70
e 8 11
e 8 15
e 8 16
e 8 23
e 8 24
e 8 26
e 8 29
e 8 30
e 8 31
e 8 34
e 8 36
e 8 41
e 8 44
e 8 48
e 8 49
e 8 50
e 8 52
e 8 53
e 8 54
e 8 58
e 8 59
e 8 60
e 8 62
e 8 63
e 8 68
e 8 70
e 9 15
e 9 17
e 9 18
e 9 20
e 9 26
e 9 29
e 9 30
e 9 35
e 9 37
e 9 38
e 9 40
e 9 41
e 9 42
e 9 44
e 9 47
e 9 50
e 9 54
e 9 55
e 9 56
e 9 57
e 9 58
e 9 59
e 9 63
e 10 14
e 10 16
e 10 18
e 10 20
e 10 21
e 10 22
e 10 28
e 10 31
e 10 32
e 10 33
e 10 35
e 10 38
e 10 41
e 10 42
e 10 43
e 10 44
e 10 48
e 10 49
e 10 52
e 10 53
e 10 54
e 10 59
e 10 60
e 10 61
e 10 63
e 10 64
e 10 66
e 10 69
e 11 12
e 11 13
e 11 15
e 11 17
e 11 18
e 11 23
e 11 26
e 11 27
e 11 28
e 11 30
e 11 33
e 11 36
e 11 40
e 11 44
e 11 45
e 11 50
e 11 52
e 11 54
e 11 57
e 11 63
e 11 68
e 12 14
e 12 17
e 12 18
e 12 26
e 12 27
e 12 28
e 12 30
e 12 32
e 12 38
e 12 39
e 12 40
e 12 43
e 12 46
e 12 52
e 12 54
e 12 56
e 12 57
e 12 60
e 12 65
e 12 67
e 12 68
e 12 69
e 12 70
e 13 14
e 13 19
e 13 20
e 13 23
e 13 25
e 13 28
e 13 30
e 13 32
e 13 33
e 13 34
e 13 39
e 13 40
e 13 43
e 13 49
e 13 51
e 13 56
e 13 60
e 13 61
e 13 62
e 13 64
e 13 66
e 14 16
e 14 17
e 14 18
e 14 22
e 14 26
e 14 28
e 14 29
e 14 35
e 14 36
e 14 38
e 14 41
e 14 44
e 14 45
e 14 47
e 14 52
e 14 56
e 14 59
e 14 62
e 14 63
e 15 16
e 15 17
e 15 20
e 15 25
e 15 28
e 15 29
e 15 30
e 15 35
e 15 36
e 15 37
e 15 42
e 15 43
e 15 46
e 15 47
e 15 49
e 15 53
e 15 54
e 15 55
e 15 57
e 15 58
e 15 61
e 15 62
e 15 67
e 16 17
e 16 19
e 16 20
e 16 22
e 16 29
e 16 30
e 16 31
e 16 33
e 16 35
e 16 38
e 16 42
e 16 45
e 16 49
e 16 50
e 16 57
e 16 62
e 16 63
e 16 64
e 16 66
e 16 68
e 16 69
e 16 70
e 17 20
e 17 21
e 17 23
e 17 24
e 17 26
e 17 30
e 17 31
e 17 41
e 17 42
e 17 43
e 17 44
e 17 49
e 17 50
e 17 51
e 17 52
e 17 53
e 17 57
e 17 61
e 17 62
e 17 63
e 17 64
e 17 66
e 17 68
e 18 20
e 18 22
e 18 25
e 18 28
e 18 32
e 18 38
e 18 39
e 18 41
e 18 42
e 18 46
e 18 51
e 18 54
e 18 57
e 18 58
e 18 59
e 18 60
e 18 63
e 18 66
e 19 21
e 19 22
e 19 23
e 19 27
e 19 32
e 19 38
e 19 41
e 19 42
e 19 46
e 19 48
e 19 49
e 19 52
e 19 53
e 19 59
e 19 62
e 19 64
e 19 69
e 19 70
e 20 21
e 20 22
e 20 36
e 20 39
e 20 40
e 20 41
e 20 50
e 20 53
e 20 54
e 20 62
e 20 65
e 21 22
e 21 24
e 21 25
e 21 28
e 21 29
e 21 32
e 21 34
e 21 35
e 21 36
e 21 38
e 21 39
e 21 41
e 21 42
e 21 45
e 21 46
e 21 47
e 21 51
e 21 52
e 21 58
e 21 61
e 21 62
e 21 63
e 21 66
e 21 67
e 21 68
e 21 69
e 22 24
e 22 27
e 22 32
e 22 33
e 22 34
e 22 35
e 22 36
e 22 39
e 22 43
e 22 44
e 22 46
e 22 48
e 22 53
e 22 55
e 22 56
e 22 60
e 22 61
e 22 63
e 22 64
e 22 66
e 22 68
e 22 69
e 22 70
e 23 25
e 23 26
e 23 33
e 23 34
e 23 37
e 23 38
e 23 40
e 23 44
e 23 46
e 23 50
e 23 51
e 23 52
e 23 56
e 23 57
e 23 58
e 23 68
e 23 70
e 24 25
e 24 31
e 24 33
e 24 36
e 24 39
e 24 40
e 24 42
e 24 43
e 24 49
e 24 53
e 24 63
e 24 65
e 24 70
e 25 36
e 25 40
e 25 41
e 25 43
e 25 45
e 25 49
e 25 52
e 25 54
e 25 58
e 25 59
e 25 60
e 25 63
e 25 64
e 25 66
e 25 69
e 26 29
e 26 32
e 26 33
e 26 40
e 26 41
e 26 42
e 26 45
e 26 49
e 26 53
e 26 58
e 26 60
e 26 61
e 26 63
e 26 66
e 26 67
e 26 69
e 27 28
e 27 33
e 27 35
e 27 38
e 27 40
e 27 45
e 27 46
e 27 47
e 27 51
e 27 52
e 27 53
e 27 54
e 27 55
e 27 56
e 27 58
e 27 65
e 28 29
e 28 30
e 28 40
e 28 44
e 28 50
e 28 52
e 28 53
e 28 55
e 28 56
e 28 57
e 28 58
e 28 59
e 28 61
e 28 62
e 28 66
e 28 68
e 29 31
e 29 32
e 29 37
e 29 38
e 29 43
e 29 44
e 29 50
e 29 52
e 29 60
e 29 62
e 29 65
e 29 67
e 29 68
e 30 31
e 30 33
e 30 34
e 30 37
e 30 40
e 30 44
e 30 45
e 30 46
e 30 47
e 30 50
e 30 55
e 30 57
e 30 59
e 30 65
e 30 66
e 31 32
e 31 36
e 31 41
e 31 45
e 31 58
e 31 61
e 31 64
e 31 65
e 31 66
e 31 68
e 32 33
e 32 36
e 32 37
e 32 39
e 32 42
e 32 44
e 32 45
e 32 46
e 32 49
e 32 55
e 32 58
e 32 64
e 32 65
e 32 68
e 32 69
e 32 70
e 33 34
e 33 35
e 33 37
e 33 42
e 33 43
e 33 51
e 33 53
e 33 55
e 33 58
e 33 60
e 33 61
e 33 62
e 33 66
e 33 69
e 34 37
e 34 38
e 34 40
e 34 44
e 34 45
e 34 46
e 34 47
e 34 48
e 34 55
e 34 56
e 34 58
e 34 59
e 34 60
e 34 61
e 34 64
e 34 65
e 34 66
e 34 67
e 34 69
e 35 36
e 35 37
e 35 38
e 35 39
e 35 45
e 35 47
e 35 48
e 35 53
e 35 56
e 35 62
e 35 65
e 35 66
e 35 68
e 35 69
e 36 37
e 36 39
e 36 40
e 36 42
e 36 43
e 36 44
e 36 45
e 36 49
e 36 58
e 36 64
e 36 67
e 36 69
e 37 38
e 37 45
e 37 48
e 37 50
e 37 51
e 37 53
e 37 57
e 37 61
e 37 62
e 37 67
e 37 68
e 38 41
e 38 42
e 38 44
e 38 49
e 38 51
e 38 53
e 38 55
e 38 56
e 38 61
e 38 63
e 38 64
e 38 65
e 38 70
e 39 48
e 39 49
e 39 51
e 39 54
e 39 61
e 39 63
e 39 64
e 39 65
e 39 66
e 40 41
e 40 44
e 40 47
e 40 51
e 40 54
e 40 55
e 40 56
e 40 57
e 40 59
e 40 60
e 40 62
e 40 69
e 41 49
e 41 50
e 41 52
e 41 57
e 41 59
e 41 60
e 41 66
e 41 70
e 42 45
e 42 47
e 42 52
e 42 61
e 42 62
e 42 63
e 42 65
e 42 67
e 42 69
e 43 44
e 43 45
e 43 46
e 43 48
e 43 50
e 43 54
e 43 56
e 43 59
e 43 60
e 43 61
e 43 62
e 43 65
e 43 68
e 44 46
e 44 47
e 44 49
e 44 50
e 44 51
e 44 53
e 44 54
e 44 55
e 44 56
e 44 65
e 44 67
e 44 69
e 44 70
e 45 46
e 45 49
e 45 51
e 45 53
e 45 55
e 45 56
e 45 60
e 45 63
e 45 64
e 45 66
e 45 69
e 46 47
e 46 50
e 46 51
e 46 54
e 46 55
e 46 56
e 46 59
e 46 61
e 46 62
e 46 65
e 46 67
e 46 69
e 46 70
e 47 49
e 47 52
e 47 53
e 47 56
e 47 58
e 47 61
e 47 63
e 47 68
e 47 69
e 47 70
e 48 54
e 48 55
e 48 60
e 48 61
e 48 62
e 48 66
e 48 69
e 48 70
e 49 60
e 49 65
e 49 69
e 50 52
e 50 54
e 50 56
e 50 57
e 50 58
e 50 59
e 50 60
e 50 63
e 50 64
e 50 68
e 51 52
e 51 53
e 51 54
e 51 56
e 51 61
e 51 63
e 51 67
e 51 70
e 52 58
e 52 59
e 52 61
e 52 62
e 52 65
e 52 66
e 53 54
e 53 56
e 53 59
e 53 62
e 53 66
e 53 67
e 53 68
e 54 58
e 54 61
e 54 63
e 54 67
e 54 70
e 55 58
e 55 61
e 55 62
e 55 63
e 55 67
e 55 68
e 56 57
e 56 58
e 56 60
e 56 63
e 56 64
e 56 67
e 57 58
e 57 60
e 57 67
e 57 70
e 58 61
e 58 69
e 59 65
e 59 67
e 59 68
e 59 69
e 60 62
e 60 63
e 60 67
e 60 68
e 60 69
e 61 63
e 61 64
e 61 67
e 61 68
e 61 70
e 62 63
e 62 70
e 63 68
e 63 69
e 63 70
e 64 65
e 64 66
e 64 67
e 65 66
e 65 68
e 65 69
e 65 70
e 66 69
e 66 70
e 67 69
e 68 69
e 68 70
e 69 70